; benchmark generated from python API
(set-info :status unknown)
(declare-datatypes ((RealState 0)) (((RMk1 (rval1 Real)) (RMk2 (rval2 Real)))))
 (assert
 (exists ((|v11:0_st| RealState) (val!6868 Real) )(exists ((|v10:1_st| RealState) (val!6869 Real) )(exists ((|v9:2_st| RealState) (val!6870 Real) )(exists ((|v8:3_st| RealState) (val!6871 Real) )(forall ((|v7:4| Real) )(forall ((|v6:5| Real) )(forall ((|v5:6| Real) )(forall ((|v4:7| Real) )(exists ((|v3:8_st| RealState) (val!6872 Real) )(exists ((|v2:9_st| RealState) (val!6873 Real) )(exists ((|v1:10_st| RealState) (val!6874 Real) )(exists ((|v0:11_st| RealState) (val!6875 Real) )(let ((?x231 (+ (+ (* (- 5.0) (rval2 |v3:8_st|)) (* (- 6.0) |v6:5|)) (* (- 17.0) (rval2 |v1:10_st|)))))
 (let ((?x2749 (- 17.0)))
 (let ((?x220 (rval2 |v11:0_st|)))
 (let ((?x3030 (* 8.0 ?x220)))
 (let ((?x2140 (* 2.0 |v4:7|)))
 (let ((?x650 (+ (+ (+ (* 12.0 (rval2 |v8:3_st|)) (* 5.0 (rval2 |v1:10_st|))) ?x2140) ?x3030)))
 (let ((?x2397 (rval2 |v3:8_st|)))
 (let ((?x2946 (- 12.0)))
 (let ((?x3031 (* ?x2946 ?x2397)))
 (let ((?x476 (+ (+ (+ (* 18.0 (rval2 |v0:11_st|)) (* (- 19.0) ?x2397)) (* 10.0 |v7:4|)) ?x3031)))
 (let ((?x273 (rval2 |v2:9_st|)))
 (let ((?x843 (* 3.0 ?x273)))
 (let ((?x1483 (+ (+ (+ (* 3.0 ?x220) (* 2.0 ?x273)) (* (- 9.0) |v7:4|)) ?x843)))
 (let (($x1003 (and (and (<= ?x1483 8.0) (<= ?x476 4.0)) (and (<= ?x650 ?x2749) (<= (+ ?x231 (* ?x2749 ?x273)) 8.0)))))
 (let ((?x599 (- 6.0)))
 (let ((?x243 (* ?x599 |v5:6|)))
 (let ((?x2250 (rval2 |v10:1_st|)))
 (let ((?x242 (* 10.0 ?x2250)))
 (let (($x1302 (<= (+ (+ (+ (* 18.0 |v6:5|) (* 5.0 (rval2 |v0:11_st|))) ?x242) ?x243) 12.0)))
 (let ((?x564 (- 8.0)))
 (let ((?x3147 (rval2 |v9:2_st|)))
 (let ((?x2572 (- 4.0)))
 (let ((?x3134 (* ?x2572 ?x3147)))
 (let ((?x1041 (+ (+ (+ (* 19.0 (rval2 |v8:3_st|)) (* 12.0 (rval2 |v0:11_st|))) ?x3134) (* (- 10.0) ?x273))))
 (let ((?x3138 (rval2 |v1:10_st|)))
 (let ((?x2417 (* 5.0 ?x3138)))
 (let ((?x1431 (+ (+ (+ (* 17.0 ?x273) (* 19.0 (rval2 |v0:11_st|))) (* 4.0 ?x3147)) ?x2417)))
 (let ((?x71 (- 9.0)))
 (let ((?x2150 (+ (+ (+ (* ?x564 (rval2 |v0:11_st|)) (* 12.0 (rval2 |v8:3_st|))) (* ?x564 |v7:4|)) (* (- 11.0) |v7:4|))))
 (let (($x3289 (and (and (and (<= ?x2150 ?x71) (<= ?x1431 ?x2572)) (and (<= ?x1041 ?x564) $x1302)) $x1003)))
 (let ((?x2348 (- 20.0)))
 (let ((?x3430 (+ (+ (+ (* 8.0 (rval2 |v0:11_st|)) (* 0.0 |v5:6|)) (* 4.0 |v4:7|)) (* ?x2946 ?x3138))))
 (let ((?x2387 (- 1.0)))
 (let ((?x2172 (+ (+ (+ (* 0.0 |v5:6|) (* ?x2749 ?x3147)) (* ?x2946 |v4:7|)) (* ?x2348 (rval2 |v0:11_st|)))))
 (let ((?x496 (- 19.0)))
 (let ((?x2690 (* ?x496 ?x3138)))
 (let ((?x2912 (+ (+ (+ (* 16.0 |v7:4|) (* 4.0 ?x2250)) (* (- 10.0) |v7:4|)) ?x2690)))
 (let ((?x1482 (+ (+ (+ (* 10.0 ?x220) (* (- 5.0) |v6:5|)) (* (- 7.0) ?x273)) (* (- 2.0) ?x3138))))
 (let (($x2894 (and (and (<= ?x1482 15.0) (<= ?x2912 18.0)) (and (<= ?x2172 ?x2387) (<= ?x3430 ?x2348)))))
 (let ((?x1477 (- 5.0)))
 (let ((?x1641 (* ?x1477 |v5:6|)))
 (let (($x2426 (<= (+ (+ (+ (* ?x2749 (rval2 |v8:3_st|)) ?x243) (* (- 13.0) ?x2250)) ?x1641) 17.0)))
 (let ((?x721 (rval2 |v0:11_st|)))
 (let ((?x1774 (- 11.0)))
 (let ((?x2754 (* ?x1774 ?x721)))
 (let (($x2887 (<= (+ (+ (+ (* ?x2387 ?x721) (* 2.0 |v7:4|)) (* (- 7.0) |v4:7|)) ?x2754) 4.0)))
 (let ((?x3504 (* 16.0 ?x3138)))
 (let (($x1282 (<= (+ (+ (+ (* ?x1477 ?x3138) (* ?x2946 |v7:4|)) (* 10.0 ?x220)) ?x3504) 19.0)))
 (let (($x149 (<= (+ (+ (+ (* ?x599 |v7:4|) (* ?x1477 ?x273)) ?x3134) (* 13.0 |v6:5|)) ?x71)))
 (let ((?x2581 (+ (+ (+ (* (- 16.0) ?x273) (* 14.0 ?x2397)) (* 18.0 |v5:6|)) (* 10.0 ?x3138))))
 (let ((?x2756 (* 16.0 ?x273)))
 (let (($x56 (<= (+ (+ (+ (* ?x71 |v6:5|) (* 17.0 ?x3138)) (* 15.0 |v5:6|)) ?x2756) 17.0)))
 (let ((?x1778 (* 19.0 ?x3147)))
 (let (($x1116 (<= (+ (+ (+ (* 16.0 |v7:4|) (* 14.0 |v6:5|)) (* 13.0 ?x220)) ?x1778) 10.0)))
 (let ((?x1112 (* 13.0 ?x3147)))
 (let (($x2540 (<= (+ (+ (+ ?x2754 (* (- 15.0) ?x273)) (* 10.0 |v6:5|)) ?x1112) 2.0)))
 (let ((?x3142 (* 13.0 ?x2250)))
 (let ((?x1867 (* 18.0 ?x2397)))
 (let ((?x3103 (+ (+ (+ (* (- 13.0) (rval2 |v8:3_st|)) (* (- 10.0) ?x721)) ?x1867) ?x3142)))
 (let (($x901 (<= (+ (+ (+ ?x2140 (* ?x599 ?x3138)) (* (- 14.0) ?x721)) (* ?x71 ?x220)) ?x2348)))
 (let ((?x2783 (+ (+ (+ (* 13.0 |v6:5|) (* (- 10.0) ?x3138)) (* 19.0 |v7:4|)) (* ?x2387 |v5:6|))))
 (let (($x2983 (<= (+ (+ (+ (* ?x71 ?x273) (* 15.0 |v6:5|)) (* 11.0 ?x220)) |v5:6|) 9.0)))
 (let (($x1216 (and (and (and $x2983 (<= ?x2783 ?x496)) (and $x901 (<= ?x3103 7.0))) (and (and $x2540 $x1116) (and $x56 (<= ?x2581 ?x496))))))
 (let ((?x1484 (+ (+ (+ (* 18.0 |v7:4|) (* 13.0 ?x721)) (* 9.0 |v6:5|)) (* (- 13.0) ?x2397))))
 (let (($x67 (<= (+ (+ (+ (* 5.0 ?x721) (* ?x2749 |v5:6|)) ?x2690) (* ?x2946 |v6:5|)) ?x496)))
 (let ((?x1319 (- 13.0)))
 (let (($x689 (<= (+ (+ (+ (* ?x564 ?x721) (* (- 3.0) ?x220)) (* ?x496 ?x721)) ?x2754) ?x1319)))
 (let ((?x902 (+ (+ (+ (* (- 2.0) ?x220) (* 16.0 (rval2 |v8:3_st|))) (* ?x599 |v7:4|)) ?x3504)))
 (let ((?x3071 (rval2 |v8:3_st|)))
 (let ((?x1326 (* 18.0 ?x3071)))
 (let (($x1240 (<= (+ (+ (+ (* (- 3.0) ?x273) ?x3147) (* 2.0 ?x220)) ?x1326) 19.0)))
 (let ((?x477 (+ (+ (+ (* 17.0 ?x220) (* (- 16.0) ?x273)) (* 12.0 ?x2250)) (* ?x2749 ?x220))))
 (let ((?x669 (* 3.0 ?x3071)))
 (let (($x2685 (<= (+ (+ (+ ?x2756 (* (- 10.0) ?x721)) (* 19.0 |v7:4|)) ?x669) 6.0)))
 (let ((?x2577 (+ (+ (+ (* (- 18.0) ?x273) (* 20.0 ?x721)) (* 0.0 ?x3138)) (* (- 3.0) ?x2397))))
 (let (($x720 (and (and (and (<= ?x2577 ?x1774) $x2685) (or (<= ?x477 ?x1774) $x1240)) (and (and (<= ?x902 4.0) $x689) (and $x67 (<= ?x1484 3.0))))))
 (let (($x2146 (and (and $x720 $x1216) (and (and (and (and $x149 $x1282) (and $x2887 $x2426)) $x2894) $x3289))))
 (let ((?x986 (* ?x2348 |v6:5|)))
 (let (($x3403 (<= (+ (+ (+ (* ?x71 |v6:5|) (* ?x2749 ?x721)) (* 2.0 ?x2397)) ?x986) 19.0)))
 (let ((?x2072 (- 14.0)))
 (let ((?x1563 (* 11.0 |v6:5|)))
 (let (($x2305 (<= (+ (+ (+ (* 13.0 ?x3138) (* 14.0 |v7:4|)) (* 9.0 |v4:7|)) ?x1563) ?x2072)))
 (let ((?x2564 (+ (+ (+ (* 8.0 ?x2250) (* (- 15.0) |v5:6|)) (* (- 16.0) |v4:7|)) (* ?x71 |v5:6|))))
 (let (($x1554 (<= (+ (+ (+ (* 17.0 ?x3071) ?x3031) (* 2.0 ?x3071)) (* ?x599 ?x273)) 5.0)))
 (let ((?x1120 (* 8.0 |v5:6|)))
 (let (($x1253 (<= (+ (+ (+ (* 4.0 ?x3147) (* 16.0 ?x220)) (* 19.0 |v7:4|)) ?x1120) 5.0)))
 (let ((?x2927 (* 2.0 ?x2250)))
 (let (($x1595 (<= (+ (+ (+ (* ?x2572 |v4:7|) (* 8.0 ?x2250)) (* ?x2572 |v5:6|)) ?x2927) 20.0)))
 (let ((?x2703 (+ (+ (+ (* ?x2072 ?x3147) (* 11.0 ?x721)) (* 16.0 |v5:6|)) (* 0.0 ?x220))))
 (let ((?x2622 (+ (+ (* (- 2.0) ?x273) (* (- 7.0) ?x2250)) (* (- 15.0) ?x220))))
 (let (($x1037 (and (and (<= (+ ?x2622 ?x1641) ?x2572) (<= ?x2703 10.0)) (and $x1595 $x1253))))
 (let ((?x1642 (- 18.0)))
 (let ((?x890 (+ (+ (+ (* ?x2072 |v7:4|) (* ?x496 ?x2250)) (* ?x2946 |v7:4|)) (* (- 10.0) ?x3147))))
 (let (($x3013 (and (<= ?x890 ?x1642) (<= (+ (+ (+ |v4:7| ?x1867) (* ?x1477 ?x220)) (* ?x2348 |v4:7|)) 19.0))))
 (let (($x912 (<= (+ (+ (+ ?x1563 (* ?x1774 ?x3138)) (* 3.0 ?x220)) (* ?x2072 ?x2250)) ?x599)))
 (let (($x2312 (<= (+ (+ (+ (* (- 7.0) ?x2250) (* (- 7.0) |v6:5|)) ?x3134) ?x2927) 12.0)))
 (let ((?x2837 (+ (+ (+ (* (- 16.0) |v4:7|) (* 12.0 ?x3138)) (* 13.0 ?x721)) (* ?x71 ?x3071))))
 (let ((?x1790 (* ?x2749 ?x721)))
 (let (($x319 (<= (+ (+ (+ (* (- 3.0) ?x273) (* ?x2946 |v6:5|)) (* ?x2348 ?x2397)) ?x1790) ?x564)))
 (let ((?x1257 (+ (+ (+ (* ?x71 ?x721) (* ?x2348 ?x2250)) (* ?x2572 ?x2397)) (* ?x1774 |v6:5|))))
 (let ((?x2722 (* 16.0 |v4:7|)))
 (let (($x686 (<= (+ (+ (+ (* 8.0 |v4:7|) (* 7.0 ?x3138)) (* 18.0 ?x273)) ?x2722) ?x1642)))
 (let (($x3249 (and (and (and $x686 (<= ?x1257 ?x1319)) (and $x319 (<= ?x2837 ?x2749))) (and (and $x2312 $x912) $x3013))))
 (let (($x3131 (and $x3249 (and $x1037 (and (or $x1554 (<= ?x2564 9.0)) (and $x2305 $x3403))))))
 (let ((?x478 (* 18.0 |v5:6|)))
 (let (($x714 (<= (+ (+ (+ (* ?x2387 ?x220) (* (- 15.0) ?x273)) (* 15.0 ?x2397)) ?x478) 19.0)))
 (let ((?x2736 (* 18.0 |v7:4|)))
 (let (($x3107 (<= (+ (+ (+ (* 3.0 |v6:5|) (* ?x2348 |v5:6|)) (* 3.0 ?x2397)) ?x2736) ?x1774)))
 (let ((?x1709 (- 16.0)))
 (let (($x3222 (<= (+ (+ (+ (* 4.0 ?x721) (* 0.0 ?x3138)) ?x2690) (* 10.0 ?x3147)) ?x1709)))
 (let (($x2513 (<= (+ (+ (+ (* ?x496 ?x2397) (* (- 10.0) ?x2250)) ?x721) (* ?x599 ?x273)) ?x1477)))
 (let ((?x2826 (* 5.0 ?x220)))
 (let (($x1017 (<= (+ (+ (+ (* ?x564 ?x3147) (* 19.0 ?x3071)) (* ?x1319 |v4:7|)) ?x2826) 13.0)))
 (let ((?x267 (* ?x496 ?x2397)))
 (let (($x2485 (<= (+ (+ (+ (* ?x1319 |v6:5|) (* 15.0 ?x3138)) (* ?x1642 ?x721)) ?x267) ?x1642)))
 (let ((?x2725 (* 13.0 ?x3138)))
 (let (($x262 (<= (+ (+ (+ (* (- 2.0) ?x3147) (* 18.0 |v4:7|)) (* ?x1709 ?x3138)) ?x2725) 0.0)))
 (let ((?x3491 (* ?x599 |v7:4|)))
 (let (($x726 (<= (+ (+ (+ (* ?x1477 |v7:4|) (* 16.0 ?x721)) (* ?x1319 ?x220)) ?x3491) ?x1774)))
 (let (($x2402 (and (and (and $x726 $x262) (and $x2485 $x1017)) (and (and $x2513 $x3222) (and $x3107 $x714)))))
 (let ((?x2503 (- 3.0)))
 (let (($x2466 (<= (+ (+ (+ (* (- 10.0) ?x220) (* ?x2572 ?x2250)) (* ?x71 ?x273)) ?x1867) ?x2503)))
 (let (($x2019 (<= (+ (+ (+ (* ?x71 ?x273) (* ?x2503 ?x273)) ?x3030) (* 3.0 ?x721)) ?x1774)))
 (let (($x1093 (<= (+ (+ (+ (* ?x1709 ?x220) (* 7.0 ?x721)) (* 7.0 ?x2397)) ?x2417) ?x599)))
 (let ((?x1343 (* 4.0 ?x2397)))
 (let (($x1248 (<= (+ (+ (+ (* 11.0 ?x2397) (* 9.0 ?x2250)) (* ?x2387 ?x721)) ?x1343) ?x2749)))
 (let ((?x802 (* 18.0 ?x220)))
 (let (($x1442 (<= (+ (+ (+ (* ?x2946 |v5:6|) (* 4.0 |v6:5|)) (* ?x2072 ?x2250)) ?x802) 20.0)))
 (let ((?x1098 (* ?x2503 |v7:4|)))
 (let (($x377 (<= (+ (+ (+ (* 4.0 ?x220) (* 15.0 |v4:7|)) (* 6.0 |v5:6|)) ?x1098) ?x1477)))
 (let (($x1717 (<= (+ (+ (+ (* (- 2.0) |v5:6|) (* ?x1319 ?x3147)) (* 7.0 ?x3138)) ?x267) 7.0)))
 (let ((?x558 (* 13.0 |v4:7|)))
 (let (($x1083 (<= (+ (+ (+ (* 0.0 ?x2250) (* 10.0 ?x2397)) (* 7.0 ?x273)) ?x558) ?x1642)))
 (let (($x3120 (and (and (and $x1083 $x1717) (and $x377 $x1442)) (and (and $x1248 $x1093) (and $x2019 $x2466)))))
 (let (($x1161 (not (= |v0:11_st| (RMk1 val!6875)))))
 (let (($x1272 (not (= |v1:10_st| (RMk1 val!6874)))))
 (let (($x1346 (not (= |v2:9_st| (RMk1 val!6873)))))
 (let (($x2005 (not (= |v3:8_st| (RMk1 val!6872)))))
 (let (($x1367 (not (= |v8:3_st| (RMk1 val!6871)))))
 (let (($x3058 (not (= |v9:2_st| (RMk1 val!6870)))))
 (let (($x1294 (not (= |v10:1_st| (RMk1 val!6869)))))
 (let (($x2915 (not (= |v11:0_st| (RMk1 val!6868)))))
 (and $x2915 $x1294 $x3058 $x1367 $x2005 $x1346 $x1272 $x1161 (or (or (and $x3120 $x2402) $x3131) $x2146)))))))))))))))))))))))))))))))))))))))))))))))))))))))))))))))))))))))))))))))))))))))))))))))))))))))))))))))))))))))))))))))))))))))))))))))))
 )
 )
 )
 )
 )
 )
 )
 )
 )
 )
 )
 )
(check-sat)
